
m = 10;

n = 10;

Amin = 40;

Amax = 50;

B = 1920;

lambda = 20.00;

c = 
[[3,5,5,5,2,10,8,2,9,10],
[2,6,7,3,3,7,4,8,5,10],
[9,5,5,8,8,3,2,8,8,7],
[8,10,8,10,4,8,9,9,6,5],
[8,6,7,2,7,6,5,10,2,9],
[7,9,3,10,7,10,9,5,5,6],
[10,9,5,5,8,8,10,4,6,5],
[7,10,10,10,2,4,6,5,3,6],
[3,8,2,3,5,5,9,3,9,10],
[8,6,8,9,8,6,6,7,6,8]];
